NAME : kro150.55330.tour
COMMENT : Cost = 5557_55330
COMMENT : Found by LKH [Keld Helsgaun] Thu Nov 16 20:48:28 2017
TYPE : TOUR
DIMENSION : 159
TOUR_SECTION
1
58
142
80
8
139
97
4
66
129
118
119
143
31
122
89
133
148
157
77
23
60
86
91
109
114
11
63
74
84
59
141
15
98
45
152
51
112
14
100
57
105
136
62
52
27
41
46
34
117
155
108
3
40
93
138
42
49
134
137
24
90
6
79
158
145
85
39
96
5
81
67
56
65
101
103
37
147
50
68
25
61
159
150
35
7
9
120
12
43
146
17
71
83
128
123
115
149
20
110
153
47
72
36
111
99
102
26
88
104
127
21
32
151
55
107
30
121
78
22
106
125
29
87
48
135
140
154
73
44
116
95
33
76
13
126
82
2
144
54
64
69
156
28
130
92
75
19
53
124
70
94
18
16
38
10
113
132
131
-1
EOF
